20
2
20068
71 166
true
0.25
4 26 7 27 32 37 9 9 23 36 46 3 6 1 27 41 2 28 23 7
28 33 5 33 44 41 43 36 43 24 22 30 18 20 12 8 43 28 34 47
-75 83 -51 58 71 53 -69 -72 -60 -32 87 -49 -75 96 -30 -8 -39 15 -37 88
0 0 -62 0 19 0 0 67 -72 57 81 0 0 -96 0 0 0 0 0 0
0 0 0 0 0 0 81 0 0 76 95 0 0 0 0 0 0 0 73
0 0 0 0 0 -67 0 0 0 0 0 -24 0 0 0 0 0 0
0 -100 0 0 -59 0 -91 0 -76 97 0 0 0 0 0 0 0
0 0 0 -59 0 -57 0 0 0 0 0 0 0 0 0 -72
0 -91 0 9 0 0 0 0 0 0 0 -56 85 0 0
0 0 0 0 0 0 0 85 0 0 0 0 0 0
0 -8 0 -80 0 0 0 0 0 0 0 0 0
0 0 0 72 8 0 -33 0 0 0 0 21
0 72 0 0 0 0 0 30 0 -73 0
0 0 0 0 -5 0 0 0 0 0
0 71 0 0 13 0 0 0 0
0 -13 0 0 25 0 0 -11
0 0 25 0 -66 0 0
0 -33 47 0 0 8
0 0 92 -57 0
0 0 0 0
0 0 0
0 0
0 0 0 87 0 0 45 88 0 0 0 92 0 0 0 0 0 -35 84
0 0 27 71 0 0 0 0 0 0 0 -28 0 39 0 80 0 0
0 -4 0 0 0 0 0 0 0 45 -68 64 -16 0 -53 0 0
0 0 -73 0 0 0 0 0 0 18 -91 0 0 70 0 0
0 0 0 0 0 0 0 19 0 34 0 0 0 97 0
0 0 0 85 24 87 0 0 0 0 0 -33 -62 0
0 0 0 0 0 -92 31 -66 -43 48 22 0 0
0 0 0 0 0 0 -29 0 86 0 0 0
0 0 -74 0 -31 0 -53 0 0 0 0
0 0 52 0 19 0 -43 0 0 0
0 16 0 0 0 0 0 0 0
0 7 -99 0 0 0 0 79
0 0 0 0 0 0 0
0 0 0 0 0 0
0 0 0 0 0
0 -96 -23 -12
0 0 0
0 0
0
0 0 0 0 0 -4 0 0 27 0 0 0 0 0 0 0 -37 0
0 0 8 0 0 0 60 0 0 0 0 0 0 0 0 0 0
0 0 4 0 0 0 -5 21 65 13 0 0 0 0 0 0
0 0 0 0 0 0 0 0 -45 0 0 0 0 0 0
0 0 0 0 27 0 0 0 0 0 0 0 0 0
0 0 0 -24 0 0 0 0 0 10 0 5 -41
0 0 0 0 -22 -5 0 0 0 0 0 0
0 82 0 0 0 0 0 0 0 0 0
0 0 0 0 0 78 80 86 0 0
0 0 0 0 -92 -24 -72 0 92
0 0 0 0 0 -25 0 0
0 0 5 52 0 -38 0
0 0 0 78 0 0
0 0 -91 0 0
0 84 0 30
0 0 0
0 0
0
0 0 0 78 0 0 0 0 0 0 0 0 0 94 0 0 0
0 0 -67 0 0 0 61 0 0 48 0 0 0 0 0 -1
0 0 -35 93 0 0 0 0 22 1 1 -21 0 0 25
0 36 77 19 0 0 -77 0 92 0 -66 0 0 0
0 0 -81 0 0 27 -37 0 0 14 0 -37 -88
0 -83 0 0 0 0 0 0 -57 -75 0 0
0 0 10 0 68 0 -28 0 -10 0 36
0 0 -18 0 0 0 26 0 0 0
0 -69 0 0 -90 0 -72 0 -12
0 0 0 0 0 0 0 -77
0 0 83 0 0 -88 35
0 0 -73 0 42 0
0 13 0 17 0
0 0 0 0
0 0 0
0 0
0
0 0 0 0 0 0 -97 39 0 36 22 0 0 -7 0 0
0 0 0 0 -88 0 0 27 0 0 0 0 0 0 0
0 -40 0 0 0 98 0 0 0 0 0 0 0 0
0 0 0 -42 28 0 0 0 0 0 0 0 0
0 0 -53 0 96 -27 22 0 70 0 -77 0
0 0 0 0 0 0 0 0 0 -51 0
0 0 0 0 45 0 0 0 0 0
0 0 0 30 -99 -63 -91 -81 0
0 -44 0 0 37 0 0 -90
0 86 0 17 0 -58 0
0 0 0 -11 0 -24
0 0 0 0 0
0 0 0 0
0 0 0
0 98
0
0 -63 0 0 70 24 0 0 0 32 0 0 0 0 0
0 0 -60 91 0 0 0 2 -5 0 0 0 40 0
0 0 -7 0 0 0 0 32 0 0 0 0 0
0 0 2 0 0 0 -58 0 0 0 -1 0
0 0 0 0 0 0 0 0 0 0 0
0 0 72 0 0 0 0 0 0 0
0 0 0 0 49 0 0 0 -97
0 0 0 0 0 0 0 0
0 -94 0 0 66 0 0
0 0 0 0 0 0
0 0 0 0 0
0 0 0 0
0 0 0
0 0
0
0 -87 0 0 -1 0 0 0 -8 0 0 83 0 0
0 0 0 0 0 0 0 0 0 0 0 0 0
0 0 78 0 0 70 0 0 0 0 0 -4
0 0 0 32 -18 -2 -26 100 0 0 0
0 -16 6 0 0 -96 0 80 0 0
0 61 0 0 -14 0 0 83 0
0 0 0 -73 0 92 0 0
0 0 0 0 26 70 0
0 0 0 0 0 0
0 60 0 0 0
0 -49 0 0
0 0 0
0 0
0
0 0 98 0 0 89 58 -59 -78 0 0 0 0
0 68 0 0 0 0 0 0 27 -82 0 -93
0 0 0 0 0 0 0 0 0 0 0
0 90 0 0 0 0 74 0 0 0
0 0 0 0 -87 0 0 0 0
0 -61 0 0 0 0 -57 0
0 0 0 0 0 0 0
0 0 0 0 0 0
0 0 0 0 0
0 0 51 54
0 0 0
0 0
0
0 0 0 0 0 0 0 88 0 0 0 0
0 0 0 -38 0 47 0 0 -12 0 0
0 0 0 0 0 0 0 0 0 0
0 0 0 -29 0 0 0 0 0
0 -75 -75 0 0 0 0 0
0 0 0 0 -76 0 0
0 0 0 0 0 0
0 0 0 0 0
0 0 0 0
0 0 -12
0 -46
0
0 0 66 0 0 26 0 0 0 0 -74
0 0 0 24 2 -33 0 0 0 0
0 0 0 0 0 0 0 0 0
0 0 0 0 0 0 -52 0
0 0 0 94 0 0 0
0 0 0 0 84 0
0 0 0 21 0
0 59 99 0
0 0 0
0 0
0
0 0 0 0 0 0 50 0 0 0
0 0 0 0 14 0 0 0 0
0 0 0 0 0 0 0 0
0 0 0 0 -6 0 0
0 0 36 0 0 0
0 0 0 0 0
0 0 0 0
0 0 0
0 0
0
0 29 0 0 0 0 0 0 0
0 7 -32 -87 57 0 0 0
0 0 0 -92 0 0 0
0 -28 0 0 0 -2
0 0 0 0 0
0 0 0 0
0 -86 41
0 -86
0
0 27 0 0 0 0 -86 0
0 0 0 0 0 0 0
0 89 0 0 0 -28
0 0 -80 0 0
0 0 0 0
0 0 16
0 0
0
0 0 -12 0 0 0 0
0 -59 0 -7 15 0
0 85 0 0 0
0 0 0 0
0 0 0
0 0
0
0 10 0 0 -58 0
0 0 0 -66 0
0 0 0 0
0 -69 0
0 -45
0
0 0 0 0 0
0 22 0 0
0 85 0
0 0
0
0 -20 0 0
0 -4 0
0 25
0
0 0 0
0 0
0
0 0
0
0
311 1151 -273 -255 63 719 218 -743 392 282 633 -205 -91 -159 32 -566 897 -23 -578 -110
44.42857142857143 39.574009324009324 -46.8 -8.585858585858587 1.7002840909090908 18.484508899143044 14.645994832041342 -51.59722222222222 13.079878665318503 9.791666666666666 21.266798418972332 -37.58333333333333 -10.11111111111111 -83.475 1.9259259259259258 -42.27743902439025 234.68023255813952 -0.8214285714285714 -21.065217391304348 -9.027355623100304
